npieces = 5;	
nplayers = 10;	
duration = [8, 9, 5, 3, 7];
rehearsal = [[1, 1, 1, 0, 0], [1, 0, 0, 0, 1], [0, 1, 1, 0, 1], [0, 0, 0, 1, 1], [0, 1, 1, 0, 1], [0, 0, 1, 0, 1], [0, 1, 1, 1, 0], [0, 1, 0, 1, 1], [0, 0, 1, 0, 1], [1, 0, 0, 1, 1]];